n_jobs = 1;
n_machines = 2;
job_task_machine = array2d(jobs, tasks, [0, 1]);
job_task_duration = array2d(jobs, tasks, [2, 4]);
deadline = array2d(jobs, 1..3, [5, 1, 4]);
fixed_horizon = 0..10;
optimal=0;
